c turning on binary mode checking
c parsing input formula with 202048 variables and 780980 clauses
c finished parsing, read 16431847 bytes from proof file
c detected empty clause; start verification via backward checking
c 4508 of 780980 clauses in core                            
c 4148 of 445408 lemmas in core using 37211 resolution steps
c 0 RAT lemmas in core; 199 redundant literals in core lemmas
s VERIFIED
c verification time: 1.989 seconds
